amountOfEmployees = 60;
horizonLength = 28;
amountOfShifts = 4;

shiftsPerDay = [|5,18,0,0,
|21,5,0,0,
|21,5,0,0,
|20,5,0,0,
|21,5,0,0,
|0,0,0,0,
|0,0,0,0,
|19,0,5,0,
|5,21,0,0,
|5,0,20,0,
|5,19,0,0,
|5,21,0,0,
|24,4,2,0,
|0,5,19,0,
|20,3,2,0,
|2,19,3,0,
|19,3,2,0,
|6,0,21,0,
|21,5,0,0,
|0,0,0,0,
|1,0,0,0,
|0,21,6,0,
|6,0,21,0,
|5,0,20,0,
|5,0,19,0,
|5,0,20,0,
|4,21,2,0,
|0,0,0,0,
|];

preferences = array3d(1..60,1..28,1..4,[3,3,2,3,3,2,3,2,1,1,3,3,3,2,3,2,1,1,3,3,3,3,2,3,3,2,3,2,1,1,3,3,1,1,3,3,1,1,3,3,1,1,3,3,3,3,2,3,3,2,3,2,1,1,3,3,3,3,2,3,3,3,2,3,1,1,3,3,3,2,3,2,1,1,3,3,3,2,3,2,1,1,3,3,1,1,3,3,3,2,3,2,3,3,2,3,1,1,3,3,3,2,3,2,1,1,3,3,1,1,3,3,3,3,2,1,3,2,3,2,1,1,1,1,3,2,3,2,1,1,1,1,3,3,2,1,3,2,3,2,1,1,1,1,1,1,1,1,1,1,1,1,1,1,1,1,3,3,2,1,3,2,3,2,1,1,1,1,3,3,2,1,3,3,2,1,1,1,1,1,3,2,3,2,1,1,1,1,3,2,3,2,1,1,1,1,1,1,1,1,3,2,3,2,3,3,2,1,1,1,1,1,3,2,3,2,1,1,1,1,1,1,1,1,4,3,3,3,3,2,3,2,3,3,3,3,3,2,3,2,3,3,3,3,4,3,3,3,3,2,3,2,3,3,3,3,3,3,3,3,3,3,3,3,3,3,3,3,4,3,3,3,3,2,3,2,3,3,3,3,4,3,3,3,4,3,3,3,3,3,3,3,3,2,3,2,3,3,3,3,3,2,3,2,3,3,3,3,3,3,3,3,3,2,3,2,4,3,3,3,3,3,3,3,3,2,3,2,3,3,3,3,3,3,3,3,4,3,2,3,3,2,3,2,3,1,3,3,3,2,3,2,3,1,3,3,4,3,2,3,3,2,3,2,3,1,3,3,3,1,3,3,3,1,3,3,3,1,3,3,4,3,2,3,3,2,3,2,3,1,3,3,4,3,2,3,4,3,2,3,3,1,3,3,3,2,3,2,3,1,3,3,3,2,3,2,3,1,3,3,3,1,3,3,3,2,3,2,4,3,2,3,3,1,3,3,3,2,3,2,3,1,3,3,3,1,3,3,3,3,3,3,3,2,3,2,3,1,3,3,3,2,3,2,3,1,3,3,3,3,3,3,3,2,3,2,3,1,3,3,3,1,3,3,3,1,3,3,3,1,3,3,3,3,3,3,3,2,3,2,3,1,3,3,3,3,3,3,3,3,3,3,3,1,3,3,3,2,3,2,3,1,3,3,3,2,3,2,3,1,3,3,3,1,3,3,3,2,3,2,3,3,3,3,3,1,3,3,3,2,3,2,3,1,3,3,3,1,3,3,3,3,2,3,3,2,3,2,3,1,3,3,3,2,3,2,3,1,3,3,3,3,2,3,3,2,3,2,3,1,3,3,3,1,3,3,3,1,3,3,3,1,3,3,3,3,2,3,3,2,3,2,3,1,3,3,3,3,2,3,3,3,2,3,3,1,3,3,3,2,3,2,3,1,3,3,3,2,3,2,3,1,3,3,3,1,3,3,3,2,3,2,3,3,2,3,3,1,3,3,3,2,3,2,3,1,3,3,3,1,3,3,3,3,3,3,3,2,3,2,3,3,3,3,3,2,3,2,3,3,3,3,3,3,3,3,3,2,3,2,3,3,3,3,3,3,3,3,3,3,3,3,3,3,3,3,3,3,3,3,3,2,3,2,3,3,3,3,3,3,3,3,3,3,3,3,3,3,3,3,3,2,3,2,3,3,3,3,3,2,3,2,3,3,3,3,3,3,3,3,3,2,3,2,3,3,3,3,3,3,3,3,3,2,3,2,3,3,3,3,3,3,3,3,3,3,3,3,3,2,3,2,2,1,3,3,3,2,3,2,2,1,3,3,3,3,3,3,3,2,3,2,2,1,3,3,2,1,3,3,2,1,3,3,2,1,3,3,3,3,3,3,3,2,3,2,2,1,3,3,3,3,3,3,3,3,3,3,2,1,3,3,3,2,3,2,2,1,3,3,3,2,3,2,2,1,3,3,2,1,3,3,3,2,3,2,3,3,3,3,2,1,3,3,3,2,3,2,2,1,3,3,2,1,3,3,4,3,3,1,1,1,1,1,1,1,1,1,1,1,1,1,1,1,1,1,4,3,3,1,1,1,1,1,1,1,1,1,1,1,1,1,1,1,1,1,1,1,1,1,4,3,3,1,1,1,1,1,1,1,1,1,4,3,3,1,4,3,3,1,1,1,1,1,1,1,1,1,1,1,1,1,1,1,1,1,1,1,1,1,1,1,1,1,1,1,1,1,4,3,3,1,1,1,1,1,1,1,1,1,1,1,1,1,1,1,1,1,3,3,3,1,1,4,1,4,3,1,1,1,1,4,1,4,3,1,1,1,3,3,3,1,1,4,1,4,3,1,1,1,3,1,1,1,3,1,1,1,3,1,1,1,3,3,3,1,1,4,1,4,3,1,1,1,3,3,3,1,3,3,3,1,3,1,1,1,1,4,1,4,3,1,1,1,1,4,1,4,3,1,1,1,3,1,1,1,1,4,1,4,3,3,3,1,3,1,1,1,1,4,1,4,3,1,1,1,3,1,1,1,3,3,2,3,3,4,3,4,3,1,3,3,3,4,3,4,3,1,3,3,3,3,2,3,3,4,3,4,3,1,3,3,3,1,3,3,3,1,3,3,3,1,3,3,3,3,2,3,3,4,3,4,3,1,3,3,3,3,2,3,3,3,2,3,3,1,3,3,3,4,3,4,3,1,3,3,3,4,3,4,3,1,3,3,3,1,3,3,3,4,3,4,3,3,2,3,3,1,3,3,3,4,3,4,3,1,3,3,3,1,3,3,3,3,1,3,1,2,1,2,3,1,3,3,1,2,1,2,3,1,3,3,3,3,1,3,1,2,1,2,3,1,3,3,3,1,3,3,3,1,3,3,3,1,3,3,3,3,1,3,1,2,1,2,3,1,3,3,3,3,1,3,3,3,1,3,3,1,3,3,1,2,1,2,3,1,3,3,1,2,1,2,3,1,3,3,3,1,3,3,1,2,1,2,3,3,1,3,3,1,3,3,1,2,1,2,3,1,3,3,3,1,3,3,3,3,2,1,3,2,3,2,3,1,1,1,3,2,3,2,3,1,1,1,3,3,2,1,3,2,3,2,3,1,1,1,3,1,1,1,3,1,1,1,3,1,1,1,3,3,2,1,3,2,3,2,3,1,1,1,3,3,2,1,3,3,2,1,3,1,1,1,3,2,3,2,3,1,1,1,3,2,3,2,3,1,1,1,3,1,1,1,3,2,3,2,3,3,2,1,3,1,1,1,3,2,3,2,3,1,1,1,3,1,1,1,3,3,3,3,3,4,3,4,1,1,3,3,3,4,3,4,1,1,3,3,3,3,3,3,3,4,3,4,1,1,3,3,1,1,3,3,1,1,3,3,1,1,3,3,3,3,3,3,3,4,3,4,1,1,3,3,3,3,3,3,3,3,3,3,1,1,3,3,3,4,3,4,1,1,3,3,3,4,3,4,1,1,3,3,1,1,3,3,3,4,3,4,3,3,3,3,1,1,3,3,3,4,3,4,1,1,3,3,1,1,3,3,4,2,3,3,3,2,3,2,3,3,3,3,3,2,3,2,3,3,3,3,4,2,3,3,3,2,3,2,3,3,3,3,3,3,3,3,3,3,3,3,3,3,3,3,4,2,3,3,3,2,3,2,3,3,3,3,4,2,3,3,4,2,3,3,3,3,3,3,3,2,3,2,3,3,3,3,3,2,3,2,3,3,3,3,3,3,3,3,3,2,3,2,4,2,3,3,3,3,3,3,3,2,3,2,3,3,3,3,3,3,3,3,4,3,3,3,3,2,3,2,4,1,3,3,3,2,3,2,4,1,3,3,4,3,3,3,3,2,3,2,4,1,3,3,4,1,3,3,4,1,3,3,4,1,3,3,4,3,3,3,3,2,3,2,4,1,3,3,4,3,3,3,4,3,3,3,4,1,3,3,3,2,3,2,4,1,3,3,3,2,3,2,4,1,3,3,4,1,3,3,3,2,3,2,4,3,3,3,4,1,3,3,3,2,3,2,4,1,3,3,4,1,3,3,3,4,3,1,3,4,3,4,3,1,1,1,3,4,3,4,3,1,1,1,3,4,3,1,3,4,3,4,3,1,1,1,3,1,1,1,3,1,1,1,3,1,1,1,3,4,3,1,3,4,3,4,3,1,1,1,3,4,3,1,3,4,3,1,3,1,1,1,3,4,3,4,3,1,1,1,3,4,3,4,3,1,1,1,3,1,1,1,3,4,3,4,3,4,3,1,3,1,1,1,3,4,3,4,3,1,1,1,3,1,1,1,3,3,3,3,1,4,1,4,2,1,3,3,1,4,1,4,2,1,3,3,3,3,3,3,1,4,1,4,2,1,3,3,2,1,3,3,2,1,3,3,2,1,3,3,3,3,3,3,1,4,1,4,2,1,3,3,3,3,3,3,3,3,3,3,2,1,3,3,1,4,1,4,2,1,3,3,1,4,1,4,2,1,3,3,2,1,3,3,1,4,1,4,3,3,3,3,2,1,3,3,1,4,1,4,2,1,3,3,2,1,3,3,4,3,3,3,3,2,3,2,3,1,3,3,3,2,3,2,3,1,3,3,4,3,3,3,3,2,3,2,3,1,3,3,3,1,3,3,3,1,3,3,3,1,3,3,4,3,3,3,3,2,3,2,3,1,3,3,4,3,3,3,4,3,3,3,3,1,3,3,3,2,3,2,3,1,3,3,3,2,3,2,3,1,3,3,3,1,3,3,3,2,3,2,4,3,3,3,3,1,3,3,3,2,3,2,3,1,3,3,3,1,3,3,4,3,3,3,3,2,3,2,3,1,3,3,3,2,3,2,3,1,3,3,4,3,3,3,3,2,3,2,3,1,3,3,3,1,3,3,3,1,3,3,3,1,3,3,4,3,3,3,3,2,3,2,3,1,3,3,4,3,3,3,4,3,3,3,3,1,3,3,3,2,3,2,3,1,3,3,3,2,3,2,3,1,3,3,3,1,3,3,3,2,3,2,4,3,3,3,3,1,3,3,3,2,3,2,3,1,3,3,3,1,3,3,4,3,3,3,3,1,3,1,3,1,3,3,3,1,3,1,3,1,3,3,4,3,3,3,3,1,3,1,3,1,3,3,3,1,3,3,3,1,3,3,3,1,3,3,4,3,3,3,3,1,3,1,3,1,3,3,4,3,3,3,4,3,3,3,3,1,3,3,3,1,3,1,3,1,3,3,3,1,3,1,3,1,3,3,3,1,3,3,3,1,3,1,4,3,3,3,3,1,3,3,3,1,3,1,3,1,3,3,3,1,3,3,3,3,3,1,1,2,1,2,3,1,1,1,1,2,1,2,3,1,1,1,3,3,3,1,1,2,1,2,3,1,1,1,3,1,1,1,3,1,1,1,3,1,1,1,3,3,3,1,1,2,1,2,3,1,1,1,3,3,3,1,3,3,3,1,3,1,1,1,1,2,1,2,3,1,1,1,1,2,1,2,3,1,1,1,3,1,1,1,1,2,1,2,3,3,3,1,3,1,1,1,1,2,1,2,3,1,1,1,3,1,1,1,3,2,3,3,3,2,3,2,4,3,3,3,3,2,3,2,4,3,3,3,3,2,3,3,3,2,3,2,4,3,3,3,4,3,3,3,4,3,3,3,4,3,3,3,3,2,3,3,3,2,3,2,4,3,3,3,3,2,3,3,3,2,3,3,4,3,3,3,3,2,3,2,4,3,3,3,3,2,3,2,4,3,3,3,4,3,3,3,3,2,3,2,3,2,3,3,4,3,3,3,3,2,3,2,4,3,3,3,4,3,3,3,3,3,3,1,3,2,3,2,3,1,1,1,3,2,3,2,3,1,1,1,3,3,3,1,3,2,3,2,3,1,1,1,3,1,1,1,3,1,1,1,3,1,1,1,3,3,3,1,3,2,3,2,3,1,1,1,3,3,3,1,3,3,3,1,3,1,1,1,3,2,3,2,3,1,1,1,3,2,3,2,3,1,1,1,3,1,1,1,3,2,3,2,3,3,3,1,3,1,1,1,3,2,3,2,3,1,1,1,3,1,1,1,3,3,3,1,3,4,3,4,2,1,1,1,3,4,3,4,2,1,1,1,3,3,3,1,3,4,3,4,2,1,1,1,2,1,1,1,2,1,1,1,2,1,1,1,3,3,3,1,3,4,3,4,2,1,1,1,3,3,3,1,3,3,3,1,2,1,1,1,3,4,3,4,2,1,1,1,3,4,3,4,2,1,1,1,2,1,1,1,3,4,3,4,3,3,3,1,2,1,1,1,3,4,3,4,2,1,1,1,2,1,1,1,3,2,3,3,3,2,3,2,3,1,3,3,3,2,3,2,3,1,3,3,3,2,3,3,3,2,3,2,3,1,3,3,3,1,3,3,3,1,3,3,3,1,3,3,3,2,3,3,3,2,3,2,3,1,3,3,3,2,3,3,3,2,3,3,3,1,3,3,3,2,3,2,3,1,3,3,3,2,3,2,3,1,3,3,3,1,3,3,3,2,3,2,3,2,3,3,3,1,3,3,3,2,3,2,3,1,3,3,3,1,3,3,3,3,3,3,3,2,3,2,3,1,3,3,3,2,3,2,3,1,3,3,3,3,3,3,3,2,3,2,3,1,3,3,3,1,3,3,3,1,3,3,3,1,3,3,3,3,3,3,3,2,3,2,3,1,3,3,3,3,3,3,3,3,3,3,3,1,3,3,3,2,3,2,3,1,3,3,3,2,3,2,3,1,3,3,3,1,3,3,3,2,3,2,3,3,3,3,3,1,3,3,3,2,3,2,3,1,3,3,3,1,3,3,3,2,3,3,2,2,1,2,2,3,3,3,2,2,1,2,2,3,3,3,3,2,3,3,2,2,1,2,2,3,3,3,2,3,3,3,2,3,3,3,2,3,3,3,3,2,3,3,2,2,1,2,2,3,3,3,3,2,3,3,3,2,3,3,2,3,3,3,2,2,1,2,2,3,3,3,2,2,1,2,2,3,3,3,2,3,3,3,2,2,1,2,3,2,3,3,2,3,3,3,2,2,1,2,2,3,3,3,2,3,3,3,3,3,3,3,3,2,3,2,3,1,3,3,3,2,3,2,3,1,3,3,3,3,3,3,3,2,3,2,3,1,3,3,3,1,3,3,3,1,3,3,3,1,3,3,3,3,3,3,3,2,3,2,3,1,3,3,3,3,3,3,3,3,3,3,3,1,3,3,3,2,3,2,3,1,3,3,3,2,3,2,3,1,3,3,3,1,3,3,3,2,3,2,3,3,3,3,3,1,3,3,3,2,3,2,3,1,3,3,3,1,3,3,3,3,3,3,3,4,3,4,3,1,3,3,3,4,3,4,3,1,3,3,3,3,3,3,3,4,3,4,3,1,3,3,3,1,3,3,3,1,3,3,3,1,3,3,3,3,3,3,3,4,3,4,3,1,3,3,3,3,3,3,3,3,3,3,3,1,3,3,3,4,3,4,3,1,3,3,3,4,3,4,3,1,3,3,3,1,3,3,3,4,3,4,3,3,3,3,3,1,3,3,3,4,3,4,3,1,3,3,3,1,3,3,4,3,3,3,3,2,3,2,3,1,3,3,3,2,3,2,3,1,3,3,4,3,3,3,3,2,3,2,3,1,3,3,3,1,3,3,3,1,3,3,3,1,3,3,4,3,3,3,3,2,3,2,3,1,3,3,4,3,3,3,4,3,3,3,3,1,3,3,3,2,3,2,3,1,3,3,3,2,3,2,3,1,3,3,3,1,3,3,3,2,3,2,4,3,3,3,3,1,3,3,3,2,3,2,3,1,3,3,3,1,3,3,3,3,1,3,1,2,1,2,3,1,3,3,1,2,1,2,3,1,3,3,3,3,1,3,1,2,1,2,3,1,3,3,3,1,3,3,3,1,3,3,3,1,3,3,3,3,1,3,1,2,1,2,3,1,3,3,3,3,1,3,3,3,1,3,3,1,3,3,1,2,1,2,3,1,3,3,1,2,1,2,3,1,3,3,3,1,3,3,1,2,1,2,3,3,1,3,3,1,3,3,1,2,1,2,3,1,3,3,3,1,3,3,3,3,3,3,3,2,3,2,1,3,3,3,3,2,3,2,1,3,3,3,3,3,3,3,3,2,3,2,1,3,3,3,1,3,3,3,1,3,3,3,1,3,3,3,3,3,3,3,3,2,3,2,1,3,3,3,3,3,3,3,3,3,3,3,1,3,3,3,3,2,3,2,1,3,3,3,3,2,3,2,1,3,3,3,1,3,3,3,3,2,3,2,3,3,3,3,1,3,3,3,3,2,3,2,1,3,3,3,1,3,3,3,3,3,2,3,3,1,3,1,3,3,3,3,3,1,3,1,3,3,3,3,3,3,2,3,3,1,3,1,3,3,3,3,3,3,3,3,3,3,3,3,3,3,3,3,3,3,2,3,3,1,3,1,3,3,3,3,3,3,2,3,3,3,2,3,3,3,3,3,3,1,3,1,3,3,3,3,3,1,3,1,3,3,3,3,3,3,3,3,3,1,3,1,3,3,2,3,3,3,3,3,3,1,3,1,3,3,3,3,3,3,3,3,3,2,3,3,3,2,3,2,3,1,3,3,3,2,3,2,3,1,3,3,3,2,3,3,3,2,3,2,3,1,3,3,3,1,3,3,3,1,3,3,3,1,3,3,3,2,3,3,3,2,3,2,3,1,3,3,3,2,3,3,3,2,3,3,3,1,3,3,3,2,3,2,3,1,3,3,3,2,3,2,3,1,3,3,3,1,3,3,3,2,3,2,3,2,3,3,3,1,3,3,3,2,3,2,3,1,3,3,3,1,3,3,4,2,3,1,1,2,1,2,1,3,1,1,1,2,1,2,1,3,1,1,4,2,3,1,1,2,1,2,1,3,1,1,1,3,1,1,1,3,1,1,1,3,1,1,4,2,3,1,1,2,1,2,1,3,1,1,4,2,3,1,4,2,3,1,1,3,1,1,1,2,1,2,1,3,1,1,1,2,1,2,1,3,1,1,1,3,1,1,1,2,1,2,4,2,3,1,1,3,1,1,1,2,1,2,1,3,1,1,1,3,1,1,3,3,2,3,3,2,3,2,3,3,3,3,3,2,3,2,3,3,3,3,3,3,2,3,3,2,3,2,3,3,3,3,3,3,3,3,3,3,3,3,3,3,3,3,3,3,2,3,3,2,3,2,3,3,3,3,3,3,2,3,3,3,2,3,3,3,3,3,3,2,3,2,3,3,3,3,3,2,3,2,3,3,3,3,3,3,3,3,3,2,3,2,3,3,2,3,3,3,3,3,3,2,3,2,3,3,3,3,3,3,3,3,3,3,3,3,2,2,1,2,2,3,3,3,2,2,1,2,2,3,3,3,3,3,3,3,2,2,1,2,2,3,3,3,2,3,3,3,2,3,3,3,2,3,3,3,3,3,3,3,2,2,1,2,2,3,3,3,3,3,3,3,3,3,3,3,2,3,3,3,2,2,1,2,2,3,3,3,2,2,1,2,2,3,3,3,2,3,3,3,2,2,1,2,3,3,3,3,2,3,3,3,2,2,1,2,2,3,3,3,2,3,3,3,4,2,3,3,3,2,3,2,3,1,3,3,3,2,3,2,3,1,3,3,4,2,3,3,3,2,3,2,3,1,3,3,3,1,3,3,3,1,3,3,3,1,3,3,4,2,3,3,3,2,3,2,3,1,3,3,4,2,3,3,4,2,3,3,3,1,3,3,3,2,3,2,3,1,3,3,3,2,3,2,3,1,3,3,3,1,3,3,3,2,3,2,4,2,3,3,3,1,3,3,3,2,3,2,3,1,3,3,3,1,3,3,3,3,3,3,3,2,3,2,3,1,3,3,3,2,3,2,3,1,3,3,3,3,3,3,3,2,3,2,3,1,3,3,3,1,3,3,3,1,3,3,3,1,3,3,3,3,3,3,3,2,3,2,3,1,3,3,3,3,3,3,3,3,3,3,3,1,3,3,3,2,3,2,3,1,3,3,3,2,3,2,3,1,3,3,3,1,3,3,3,2,3,2,3,3,3,3,3,1,3,3,3,2,3,2,3,1,3,3,3,1,3,3,3,3,3,3,3,2,3,2,3,1,3,3,3,2,3,2,3,1,3,3,3,3,3,3,3,2,3,2,3,1,3,3,3,1,3,3,3,1,3,3,3,1,3,3,3,3,3,3,3,2,3,2,3,1,3,3,3,3,3,3,3,3,3,3,3,1,3,3,3,2,3,2,3,1,3,3,3,2,3,2,3,1,3,3,3,1,3,3,3,2,3,2,3,3,3,3,3,1,3,3,3,2,3,2,3,1,3,3,3,1,3,3,3,2,3,3,3,2,3,2,3,3,3,3,3,2,3,2,3,3,3,3,3,2,3,3,3,2,3,2,3,3,3,3,3,3,3,3,3,3,3,3,3,3,3,3,3,2,3,3,3,2,3,2,3,3,3,3,3,2,3,3,3,2,3,3,3,3,3,3,3,2,3,2,3,3,3,3,3,2,3,2,3,3,3,3,3,3,3,3,3,2,3,2,3,2,3,3,3,3,3,3,3,2,3,2,3,3,3,3,3,3,3,3,3,3,3,1,3,2,3,2,3,1,1,1,3,2,3,2,3,1,1,1,3,3,3,1,3,2,3,2,3,1,1,1,3,1,1,1,3,1,1,1,3,1,1,1,3,3,3,1,3,2,3,2,3,1,1,1,3,3,3,1,3,3,3,1,3,1,1,1,3,2,3,2,3,1,1,1,3,2,3,2,3,1,1,1,3,1,1,1,3,2,3,2,3,3,3,1,3,1,1,1,3,2,3,2,3,1,1,1,3,1,1,1,3,3,3,3,3,1,3,1,3,1,3,3,3,1,3,1,3,1,3,3,3,3,3,3,3,1,3,1,3,1,3,3,3,1,3,3,3,1,3,3,3,1,3,3,3,3,3,3,3,1,3,1,3,1,3,3,3,3,3,3,3,3,3,3,3,1,3,3,3,1,3,1,3,1,3,3,3,1,3,1,3,1,3,3,3,1,3,3,3,1,3,1,3,3,3,3,3,1,3,3,3,1,3,1,3,1,3,3,3,1,3,3,3,2,2,3,3,2,3,2,3,1,3,3,3,2,3,2,3,1,3,3,3,2,2,3,3,2,3,2,3,1,3,3,3,1,3,3,3,1,3,3,3,1,3,3,3,2,2,3,3,2,3,2,3,1,3,3,3,2,2,3,3,2,2,3,3,1,3,3,3,2,3,2,3,1,3,3,3,2,3,2,3,1,3,3,3,1,3,3,3,2,3,2,3,2,2,3,3,1,3,3,3,2,3,2,3,1,3,3,3,1,3,3,3,3,3,3,3,2,3,2,3,1,3,3,3,2,3,2,3,1,3,3,3,3,3,3,3,2,3,2,3,1,3,3,3,1,3,3,3,1,3,3,3,1,3,3,3,3,3,3,3,2,3,2,3,1,3,3,3,3,3,3,3,3,3,3,3,1,3,3,3,2,3,2,3,1,3,3,3,2,3,2,3,1,3,3,3,1,3,3,3,2,3,2,3,3,3,3,3,1,3,3,3,2,3,2,3,1,3,3,3,1,3,3,3,3,3,3,3,2,3,2,3,1,3,3,3,2,3,2,3,1,3,3,3,3,3,3,3,2,3,2,3,1,3,3,3,1,3,3,3,1,3,3,3,1,3,3,3,3,3,3,3,2,3,2,3,1,3,3,3,3,3,3,3,3,3,3,3,1,3,3,3,2,3,2,3,1,3,3,3,2,3,2,3,1,3,3,3,1,3,3,3,2,3,2,3,3,3,3,3,1,3,3,3,2,3,2,3,1,3,3,3,1,3,3,3,3,3,1,3,1,3,1,3,1,1,1,3,1,3,1,3,1,1,1,3,3,3,1,3,1,3,1,3,1,1,1,3,1,1,1,3,1,1,1,3,1,1,1,3,3,3,1,3,1,3,1,3,1,1,1,3,3,3,1,3,3,3,1,3,1,1,1,3,1,3,1,3,1,1,1,3,1,3,1,3,1,1,1,3,1,1,1,3,1,3,1,3,3,3,1,3,1,1,1,3,1,3,1,3,1,1,1,3,1,1,1,3,3,3,1,3,2,3,2,3,3,1,1,3,2,3,2,3,3,1,1,3,3,3,1,3,2,3,2,3,3,1,1,3,3,1,1,3,3,1,1,3,3,1,1,3,3,3,1,3,2,3,2,3,3,1,1,3,3,3,1,3,3,3,1,3,3,1,1,3,2,3,2,3,3,1,1,3,2,3,2,3,3,1,1,3,3,1,1,3,2,3,2,3,3,3,1,3,3,1,1,3,2,3,2,3,3,1,1,3,3,1,1,3,3,3,3,3,2,3,2,1,1,3,3,3,2,3,2,1,1,3,3,3,3,3,3,3,2,3,2,1,1,3,3,1,1,3,3,1,1,3,3,1,1,3,3,3,3,3,3,3,2,3,2,1,1,3,3,3,3,3,3,3,3,3,3,1,1,3,3,3,2,3,2,1,1,3,3,3,2,3,2,1,1,3,3,1,1,3,3,3,2,3,2,3,3,3,3,1,1,3,3,3,2,3,2,1,1,3,3,1,1,3,3,3,2,3,3,3,2,3,2,3,3,3,3,3,2,3,2,3,3,3,3,3,2,3,3,3,2,3,2,3,3,3,3,3,3,3,3,3,3,3,3,3,3,3,3,3,2,3,3,3,2,3,2,3,3,3,3,3,2,3,3,3,2,3,3,3,3,3,3,3,2,3,2,3,3,3,3,3,2,3,2,3,3,3,3,3,3,3,3,3,2,3,2,3,2,3,3,3,3,3,3,3,2,3,2,3,3,3,3,3,3,3,3,3,2,3,3,3,2,3,2,3,1,3,3,3,2,3,2,3,1,3,3,3,2,3,3,3,2,3,2,3,1,3,3,3,1,3,3,3,1,3,3,3,1,3,3,3,2,3,3,3,2,3,2,3,1,3,3,3,2,3,3,3,2,3,3,3,1,3,3,3,2,3,2,3,1,3,3,3,2,3,2,3,1,3,3,3,1,3,3,3,2,3,2,3,2,3,3,3,1,3,3,3,2,3,2,3,1,3,3,3,1,3,3,3,3,3,3,3,2,3,2,3,1,3,3,3,2,3,2,3,1,3,3,3,3,3,3,3,2,3,2,3,1,3,3,3,1,3,3,3,1,3,3,3,1,3,3,3,3,3,3,3,2,3,2,3,1,3,3,3,3,3,3,3,3,3,3,3,1,3,3,3,2,3,2,3,1,3,3,3,2,3,2,3,1,3,3,3,1,3,3,3,2,3,2,3,3,3,3,3,1,3,3,3,2,3,2,3,1,3,3,3,1,3,3,3,3,1,3,1,2,1,2,3,1,3,3,1,2,1,2,3,1,3,3,3,3,1,3,1,2,1,2,3,1,3,3,3,1,3,3,3,1,3,3,3,1,3,3,3,3,1,3,1,2,1,2,3,1,3,3,3,3,1,3,3,3,1,3,3,1,3,3,1,2,1,2,3,1,3,3,1,2,1,2,3,1,3,3,3,1,3,3,1,2,1,2,3,3,1,3,3,1,3,3,1,2,1,2,3,1,3,3,3,1,3,3,3,3,3,1,1,1,1,1,3,1,1,1,1,1,1,1,3,1,1,1,3,3,3,1,1,1,1,1,3,1,1,1,3,1,1,1,3,1,1,1,3,1,1,1,3,3,3,1,1,1,1,1,3,1,1,1,3,3,3,1,3,3,3,1,3,1,1,1,1,1,1,1,3,1,1,1,1,1,1,1,3,1,1,1,3,1,1,1,1,1,1,1,3,3,3,1,3,1,1,1,1,1,1,1,3,1,1,1,3,1,1,1,4,3,2,1,1,2,1,2,3,3,1,1,1,2,1,2,3,3,1,1,4,3,2,1,1,2,1,2,3,3,1,1,3,3,1,1,3,3,1,1,3,3,1,1,4,3,2,1,1,2,1,2,3,3,1,1,4,3,2,1,4,3,2,1,3,3,1,1,1,2,1,2,3,3,1,1,1,2,1,2,3,3,1,1,3,3,1,1,1,2,1,2,4,3,2,1,3,3,1,1,1,2,1,2,3,3,1,1,3,3,1,1,3,3,3,3,3,4,3,4,3,1,3,3,3,4,3,4,3,1,3,3,3,3,3,3,3,4,3,4,3,1,3,3,3,1,3,3,3,1,3,3,3,1,3,3,3,3,3,3,3,4,3,4,3,1,3,3,3,3,3,3,3,3,3,3,3,1,3,3,3,4,3,4,3,1,3,3,3,4,3,4,3,1,3,3,3,1,3,3,3,4,3,4,3,3,3,3,3,1,3,3,3,4,3,4,3,1,3,3,3,1,3,3,3,2,2,3,1,2,1,2,3,1,3,3,1,2,1,2,3,1,3,3,3,2,2,3,1,2,1,2,3,1,3,3,3,1,3,3,3,1,3,3,3,1,3,3,3,2,2,3,1,2,1,2,3,1,3,3,3,2,2,3,3,2,2,3,3,1,3,3,1,2,1,2,3,1,3,3,1,2,1,2,3,1,3,3,3,1,3,3,1,2,1,2,3,2,2,3,3,1,3,3,1,2,1,2,3,1,3,3,3,1,3,3,1,2,3,3,1,2,1,2,3,1,3,3,1,2,1,2,3,1,3,3,1,2,3,3,1,2,1,2,3,1,3,3,3,1,3,3,3,1,3,3,3,1,3,3,1,2,3,3,1,2,1,2,3,1,3,3,1,2,3,3,1,2,3,3,3,1,3,3,1,2,1,2,3,1,3,3,1,2,1,2,3,1,3,3,3,1,3,3,1,2,1,2,1,2,3,3,3,1,3,3,1,2,1,2,3,1,3,3,3,1,3,3,4,3,3,3,3,2,3,2,3,1,3,3,3,2,3,2,3,1,3,3,4,3,3,3,3,2,3,2,3,1,3,3,3,1,3,3,3,1,3,3,3,1,3,3,4,3,3,3,3,2,3,2,3,1,3,3,4,3,3,3,4,3,3,3,3,1,3,3,3,2,3,2,3,1,3,3,3,2,3,2,3,1,3,3,3,1,3,3,3,2,3,2,4,3,3,3,3,1,3,3,3,2,3,2,3,1,3,3,3,1,3,3,]);

minShifts = 16;
maxShifts = 24;
minConsecShifts = 1;
maxConsecShifts = 5;

minConsecSameShifts = [1,1,1,1];
maxConsecSameShifts = [7,7,7,7];

minPerShifts = [0,0,0,0];
maxPerShifts = [24,24,24,24];